param set_len = 18;
param target = 2407043400;
param values := [0] 104288149 [1] 249570874 [2] 111684777 [3] 46370169 [4] 233860477 [5] 383796405 [6] 479402940 [7] 320019834 [8] 456798238 [9] 266828756 [10] 297717960 [11] 311184559 [12] 24944486 [13] 518563990 [14] 157257769 [15] 405661981 [16] 334792013 [17] 36253524 ;
